c NeuroCodeBench 2.0 CNF formula with verdict Unsat
p cnf 21 84
1 17 -14 -9 4 -21 6 -7 18 20 0
1 17 14 -3 5 -18 -4 -16 0
1 17 -14 -9 -4 -8 7 0
-1 15 6 -19 20 -14 -8 0
1 17 -14 -9 -4 8 6 19 -15 -18 0
1 -17 -11 -5 -16 -18 12 0
1 17 -14 -9 -4 8 -6 15 0
1 -17 -11 -5 16 19 -2 -13 0
1 17 -14 -9 4 -21 6 7 -12 0
-1 -15 -19 4 -5 20 -18 14 0
-1 15 -6 -2 8 -14 0
1 -17 11 9 -4 8 0
1 17 14 -3 5 -18 -4 16 0
-1 15 6 19 -2 8 0
1 17 -14 -9 -4 -8 -7 0
1 17 14 -3 5 -18 4 2 -8 0
-1 -15 -19 4 -5 20 18 21 0
1 17 -14 -9 4 21 -7 -20 0
1 -17 11 9 -4 -8 0
-1 15 6 19 -2 -8 0
1 -17 -11 -5 16 19 -2 13 12 0
1 17 14 3 4 -19 0
-1 -15 19 7 5 0
1 17 -14 -9 4 -21 6 -7 -18 10 12 -13 0
-1 15 -6 2 4 0
1 17 14 3 4 19 6 0
1 -17 -11 -5 16 19 2 7 0
1 17 -14 -9 -4 8 -6 -15 0
1 17 -14 -9 -4 8 6 19 15 0
1 17 -14 9 4 -13 0
1 17 -14 -9 4 -21 6 -7 -18 -10 0
1 17 -14 -9 -4 8 6 19 -15 18 0
-1 15 -6 -2 -8 -13 0
-1 15 6 -19 -20 0
1 17 14 -3 -5 -13 0
1 -17 -11 -5 -16 18 -2 0
1 17 14 -3 5 -18 4 2 8 0
1 -17 -11 -5 16 19 2 -7 0
-1 -15 -19 4 -5 20 -18 -14 0
1 -17 11 9 4 12 0
1 17 14 -3 5 18 -9 -11 0
-1 -15 19 -7 3 0
1 17 14 3 4 19 -6 0
1 -17 11 -9 14 0
1 -17 -11 -5 -16 -18 -12 0
1 17 -14 -9 4 -21 6 -7 -18 10 12 13 -11 0
1 17 -14 -9 4 -21 6 -7 18 -20 0
1 -17 -11 -5 -16 18 2 0
1 17 14 -3 5 18 9 0
-1 -15 19 7 -5 0
1 17 -14 9 -4 0
1 17 -14 -9 4 -21 6 7 12 0
-1 -15 -19 4 -5 20 18 -21 0
1 17 -14 -9 4 21 -7 20 0
1 -17 -11 -5 16 19 -2 13 -12 0
1 17 14 -3 5 -18 4 -2 0
1 17 14 3 -4 0
1 17 -14 -9 4 -21 6 -7 -18 10 12 13 11 0
1 17 -14 -9 -4 8 6 -19 0
-1 -15 -19 -4 8 0
-1 15 6 19 2 0
1 -17 -11 5 0
1 17 -14 -9 4 21 7 0
1 -17 11 -9 -14 0
-1 -15 -19 -4 -8 0
-1 15 -6 -2 8 14 0
-1 -15 -19 4 -5 -20 -10 -9 0
-1 -15 -19 4 -5 -20 -10 9 0
1 17 -14 -9 4 -21 -6 15 13 0
-1 -15 -19 4 5 0
-1 -15 -19 4 -5 -20 10 0
1 17 -14 -9 4 -21 6 -7 -18 10 -12 0
1 -17 11 9 4 -12 0
-1 15 -6 2 -4 0
1 17 14 -3 5 18 -9 11 0
1 17 -14 9 4 13 0
-1 -15 19 -7 -3 0
1 17 -14 -9 4 -21 -6 -15 0
1 17 -14 -9 4 -21 -6 15 -13 0
-1 15 -6 -2 -8 13 0
-1 15 6 -19 20 -14 8 0
1 17 14 -3 -5 13 0
-1 15 6 -19 20 14 0
1 -17 -11 -5 16 -19 0
